Maximize

2045.0 x_0 + 340.0 x_1 + 1245.0 x_2 + 1337.0 x_3 + 1882.0 x_4 + 1647.0 x_5 + 2690.0 x_6 + 1820.0 x_7 + 2062.0 x_8 + 1245.0 x_9 + 390.0 x_10 + 1585.0 x_11 + 2625.0 x_12 + 1435.0 x_13 + 630.0 x_14


Subject To

a0: 124 x_14 <= 1940
b0: 124 x_14 <= 1800
c0: x_0 <= 2
c1: x_1 <= 5
c2: x_2 <= 4
c3: x_3 <= 2
c4: x_4 <= 2
c5: x_5 <= 2
c6: x_6 <= 2
c7: x_7 <= 2
c8: x_8 <= 2
c9: x_9 <= 4
c10: x_10 <= 4
c11: x_11 <= 3
c12: x_12 <= 2
c13: x_13 <= 2
c14: x_14 <= 4



Bounds


x_0 < 15
x_1 < 15
x_2 < 15
x_3 < 15
x_4 < 15
x_5 < 15
x_6 < 15
x_7 < 15
x_8 < 15
x_9 < 15
x_10 < 15
x_11 < 15
x_12 < 15
x_13 < 15
x_14 < 15




General

 x_0 x_1 x_2 x_3 x_4 x_5 x_6 x_7 x_8 x_9 x_10 x_11 x_12 x_13 x_14



End
